Mn  O                                   
   1.00000000000000     
     3.7168995800034805    0.0000000000000000    0.0000000000000002
     0.0000000000000009    5.4077586807044531    0.0000000000000003
     0.0000000000000000    0.0000000000000000   10.6793093300406348
   Mn   O 
     8    10
Direct
  0.5000000000000000  0.7317289249999988  0.1327811450000027
  0.5000000000000000  0.2682710750000012  0.8672188549999973
  0.5000000000000000  0.7682710750000012  0.6327811450000027
  0.5000000000000000  0.2317289249999988  0.3672188549999973
  0.0000000000000000  0.7529809950000015  0.3972663249999968
  0.0000000000000000  0.2470190049999985  0.6027336750000032
  0.0000000000000000  0.2529809950000015  0.1027336750000032
  0.0000000000000000  0.7470190049999985  0.8972663249999968
  0.5000000000000000  0.0000000000000000  0.0000000000000000
  0.5000000000000000  0.6220266349999974  0.8120916749999978
  0.5000000000000000  0.1220266349999974  0.6879083250000022
  0.5000000000000000  0.8779733650000026  0.3120916749999978
  0.0000000000000000  0.8141068950000019  0.5962028349999997
  0.0000000000000000  0.1858931049999981  0.4037971650000003
  0.5000000000000000  0.3779733650000026  0.1879083250000022
  0.0000000000000000  0.6858931049999981  0.0962028349999997
  0.5000000000000000  0.5000000000000000  0.5000000000000000
  0.0000000000000000  0.3141068950000019  0.9037971650000003
 
  0.00000000E+00  0.00000000E+00  0.00000000E+00
  0.00000000E+00  0.00000000E+00  0.00000000E+00
  0.00000000E+00  0.00000000E+00  0.00000000E+00
  0.00000000E+00  0.00000000E+00  0.00000000E+00
  0.00000000E+00  0.00000000E+00  0.00000000E+00
  0.00000000E+00  0.00000000E+00  0.00000000E+00
  0.00000000E+00  0.00000000E+00  0.00000000E+00
  0.00000000E+00  0.00000000E+00  0.00000000E+00
  0.00000000E+00  0.00000000E+00  0.00000000E+00
  0.00000000E+00  0.00000000E+00  0.00000000E+00
  0.00000000E+00  0.00000000E+00  0.00000000E+00
  0.00000000E+00  0.00000000E+00  0.00000000E+00
  0.00000000E+00  0.00000000E+00  0.00000000E+00
  0.00000000E+00  0.00000000E+00  0.00000000E+00
  0.00000000E+00  0.00000000E+00  0.00000000E+00
  0.00000000E+00  0.00000000E+00  0.00000000E+00
  0.00000000E+00  0.00000000E+00  0.00000000E+00
  0.00000000E+00  0.00000000E+00  0.00000000E+00
