Mn  O 
 1.0000000000000000
     3.7168995800034805    0.0000000000000000    0.0000000000000002
     0.0000000000000009    5.4077586807044531    0.0000000000000003
     0.0000000000000000    0.0000000000000000   10.6793093300406348
 Mn  O  
   8  10
Direct
  0.5000000000000000  0.7317289250000000  0.1327811450000000
  0.5000000000000000  0.2682710750000000  0.8672188550000000
  0.5000000000000000  0.7682710750000000  0.6327811450000000
  0.5000000000000000  0.2317289250000001  0.3672188550000000
  0.0000000000000000  0.7529809949999999  0.3972663249999999
  0.0000000000000000  0.2470190050000001  0.6027336750000001
  0.0000000000000000  0.2529809949999999  0.1027336750000001
  0.0000000000000000  0.7470190050000001  0.8972663249999999
  0.5000000000000000  0.0000000000000000  0.0000000000000000
  0.5000000000000000  0.6220266350000000  0.8120916750000000
  0.5000000000000000  0.1220266350000001  0.6879083250000000
  0.5000000000000000  0.8779733650000000  0.3120916750000000
  0.0000000000000000  0.8141068950000000  0.5962028350000000
  0.0000000000000000  0.1858931050000000  0.4037971650000000
  0.5000000000000000  0.3779733650000000  0.1879083250000000
  0.0000000000000000  0.6858931050000000  0.0962028350000002
  0.5000000000000000  0.5000000000000000  0.5000000000000000
  0.0000000000000000  0.3141068950000001  0.9037971650000000
